c Random 3-SAT formula
c Number of variables: 7
c Number of clauses: 32
p cnf 7 32
4 -3 -5 0
5 4 2 0
-5 1 -7 0
1 2 -3 0
5 -4 -1 0
-5 6 -4 0
-4 6 -5 0
3 -7 -4 0
5 3 6 0
-6 4 5 0
-1 -5 -6 0
-2 1 7 0
-6 7 -3 0
1 6 4 0
1 -3 -2 0
-4 3 -7 0
3 5 -4 0
5 -4 1 0
-1 3 -4 0
-4 1 6 0
-1 2 5 0
-6 4 1 0
-5 7 2 0
5 -3 -4 0
-5 6 7 0
-3 -1 4 0
5 -1 7 0
1 7 -5 0
-4 2 6 0
1 4 -3 0
-7 4 3 0
-6 -7 2 0
